20 1 3
155 311 350 293 241 390 517 276 739 323 293 631 147 710 784 806 881 450 506 107 
74 43 836 389 88 36 787 305 875 341 164 29 651 513 322 892 903 838 167 641 
161 459 272 307 168 55 113 48 505 618 155 578 661 990 967 748 25 753 52 899 
930 2160 9280 7440 7280 2490 6350 6300 870 8010 2710 2480 2590 5420 5540 4270 5970 6670 4740 1010 
46250
